sat
(
  (define-fun I () String
    "")
  (define-fun M () String
    "f")
  (define-fun K () String
    "fedbbafb")
  (define-fun A () String
    "eecdfefdfcafddbbfdbbefebebf")
  (define-fun D () String
    "fadfdbbefebebfdd")
)
